5 5
3 2 2 44 1 40 4 19 0 63
0 24 3 50 4 20 2 57 1 50
2 95 0 58 1 31 4 37 3 93
2 4 3 58 4 10 0 63 1 36
0 55 4 99 3 57 1 85 2 43
-1
0 1 3 4 5
0 1 2 3 5
0 1 3 4 5
0 2 5
0 1 2 4 5
-2
3 116 147 199
28 110 144 315
146 238 235 383
68 174
63 241 462 509

367 8
20 5 18 11 4
2 19 12 23 9
15 1 10 8 24
0 16 6 22 14
17 21 7 3 13
